59 61
51 20
19 94
92 44
74 23
71 69
91 3
73 21
12 23
14 70
29 37
12 72
95 97
97 89
19 15
28 69
92 92
37 44
6 35
54 35
33 76
37 81
46 88
33 47
66 24
80 20
33 69
26 78
10 18
3 47
92 98
47 1
67 51
87 26
28 90
85 21
28 56
2 51
58 59
87 10
94 45
62 79
27 3
23 84
84 81
23 33
49 16
45 2
64 36
50 7
66 69
74 33
70 16
39 30
6 11
84 57
2 85
28 79
98 75
62 84
30 85
61 67
85 64
25 75
48 55
40 88
86 69
74 28
6 68
19 47
32 74
21 34
95 16
62 25
70 78
79 17
55 3
33 33
60 75
51 54
58 72
92 10
0 85
21 52
84 38
47 27
57 85
73 32
4 34
84 88
70 64
45 10
22 37
5 84
2 61
56 5
35 41
30 38
37 16
17 22
